min: a1 + a2;
C1: X11 =1;
C2: X21 =1;
C3: X31  + X32 =1;
C4: X41  + X42  + X43 =1;
C5: X51  + X52  + X53  + X54 =1;
C6: X61  + X62  + X63  + X64  + X65 =1;
C7: X71  + X72  + X73  + X74  + X75  + X76 =1;
C8: X81  + X82  + X83  + X84  + X85  + X86  + X87 =1;
C9: X91  + X92  + X93  + X94  + X95  + X96  + X97  + X98 =1;
C10: X101  + X102  + X103  + X104  + X105  + X106  + X107  + X108  + X109 =1;
C11: X111  + X112  + X113  + X114  + X115  + X116  + X117  + X118  + X119  + X1110 =1;
C12: X122 =1;
C13: X133 =1;
C14: X144 =1;
C15: X155 =1;
C16: X166 =1;
C17: X177 =1;
C18: X188 =1;
C19: X199 =1;
C20: X2010 =1;
C21: X2111 =1;
C22: X222 =1;
C23: X233 =1;
C24: X244 =1;
C25: X255 =1;
C26: X266 =1;
C27: X277 =1;
C28: X288 =1;
C29: X299 =1;
C30: X3010 =1;
C31: X3111 =1;
C32: X3212 =1;
 

C33: X11  + X21  + X31  + X41  + X51  + X61  + X71  + X81  + X91  + X101  + X111  +  -a1<= 0;
C34: X32  + X42  + X52  + X62  + X72  + X82  + X92  + X102  + X112  +  -a1<= 0;
C35: X43  + X53  + X63  + X73  + X83  + X93  + X103  + X113  +  -a1<= 0;
C36: X54  + X64  + X74  + X84  + X94  + X104  + X114  +  -a1<= 0;
C37: X65  + X75  + X85  + X95  + X105  + X115  +  -a1<= 0;
C38: X76  + X86  + X96  + X106  + X116  +  -a1<= 0;
C39: X87  + X97  + X107  + X117  +  -a1<= 0;
C40: X98  + X108  + X118  +  -a1<= 0;
C41: X109  + X119  +  -a1<= 0;
C42: X1110  +  -a1<= 0;
C43: C44: C45: C46: C47: C48: C49: C50: C51: C52: C53: C54: C55: C56: C57: C58: C59: C60: C61: C62: C63: C64: 

C65: -a2<= 0;
C66: X122  +  X222  +  -a2<= 0;
C67: X133  +  X233  +  -a2<= 0;
C68: X144  +  X244  +  -a2<= 0;
C69: X155  +  X255  +  -a2<= 0;
C70: X166  +  X266  +  -a2<= 0;
C71: X177  +  X277  +  -a2<= 0;
C72: X188  +  X288  +  -a2<= 0;
C73: X199  +  X299  +  -a2<= 0;
C74: X2010  +  X3010  +  -a2<= 0;
C75: X2111  +  X3111  +  -a2<= 0;
C76: -a2<= 0;
C77: -a2<= 0;
C78: -a2<= 0;
C79: -a2<= 0;
C80: -a2<= 0;
C81: -a2<= 0;
C82: -a2<= 0;
C83: -a2<= 0;
C84: -a2<= 0;

int a1, a2, X31, X32, X41, X42, X43, X51, X52, X53, X54, X61, X62, X63, X64, X65, X71, X72, X73, X74, X75, X76, X81, X82, X83, X84, X85, X86, X87, X91, X92, X93, X94, X95, X96, X97, X98, X101, X102, X103, X104, X105, X106, X107, X108, X109, X111, X112, X113, X114, X115, X116, X117, X118, X119, X1110;